NAME          SET_PARTITION
ROWS
 N  COST
 E  ELEM1
 E  ELEM2
 E  ELEM3
 E  ELEM4
 E  ELEM5
 E  ELEM6
 E  ELEM7
 E  ELEM8
 E  ELEM9
 E  ELEM10
 E  ELEM11
 E  ELEM12
 E  ELEM13
 E  ELEM14
 E  ELEM15
 E  ELEM16
 E  ELEM17
 E  ELEM18
 E  ELEM19
 E  ELEM20
 E  ELEM21
 E  ELEM22
 E  ELEM23
 E  ELEM24
 E  ELEM25
 E  ELEM26
 E  ELEM27
 E  ELEM28
 E  ELEM29
 E  ELEM30
 E  ELEM31
 E  ELEM32
 E  ELEM33
 E  ELEM34
 E  ELEM35
 E  ELEM36
 E  ELEM37
 E  ELEM38
 E  ELEM39
 E  ELEM40
 E  ELEM41
 E  ELEM42
 E  ELEM43
 E  ELEM44
 E  ELEM45
 E  ELEM46
 E  ELEM47
 E  ELEM48
 E  ELEM49
 E  ELEM50
COLUMNS
    X1       COST      55         ELEM3     1          ELEM11    1          
    X1       ELEM16    1          ELEM17    1          
    X1       ELEM22    1          ELEM24    1          
    X1       ELEM26    1          ELEM27    1          
    X1       ELEM30    1          ELEM34    1          
    X1       ELEM37    1          ELEM44    1          
    X1       ELEM48    1          
    X2       COST      88         ELEM2     1          ELEM7     1          
    X2       ELEM10    1          ELEM13    1          
    X2       ELEM18    1          ELEM20    1          
    X2       ELEM25    1          ELEM28    1          
    X2       ELEM36    1          ELEM38    1          
    X2       ELEM39    1          ELEM40    1          
    X2       ELEM41    1          ELEM43    1          
    X2       ELEM47    1          
    X3       COST      90         ELEM2     1          ELEM8     1          
    X3       ELEM15    1          ELEM20    1          
    X3       ELEM24    1          ELEM26    1          
    X3       ELEM28    1          ELEM33    1          
    X3       ELEM34    1          ELEM37    1          
    X3       ELEM41    1          ELEM48    1          
    X4       COST      78         ELEM7     1          ELEM11    1          
    X4       ELEM15    1          ELEM17    1          
    X4       ELEM20    1          ELEM29    1          
    X4       ELEM31    1          ELEM35    1          
    X4       ELEM36    1          ELEM41    1          
    X5       COST      66         ELEM3     1          ELEM4     1          
    X5       ELEM5     1          ELEM8     1          
    X5       ELEM9     1          ELEM14    1          
    X5       ELEM16    1          ELEM21    1          
    X5       ELEM22    1          ELEM26    1          
    X5       ELEM27    1          ELEM37    1          
    X5       ELEM48    1          ELEM50    1          
    X6       COST      16         ELEM1     1          ELEM6     1          
    X6       ELEM9     1          ELEM13    1          
    X6       ELEM14    1          ELEM16    1          
    X6       ELEM18    1          ELEM23    1          
    X6       ELEM30    1          ELEM35    1          
    X6       ELEM38    1          ELEM43    1          
    X7       COST      17         ELEM1     1          ELEM4     1          
    X7       ELEM8     1          ELEM15    1          
    X7       ELEM19    1          ELEM31    1          
    X7       ELEM33    1          ELEM46    1          
    X7       ELEM49    1          
    X8       COST      42         ELEM2     1          ELEM6     1          
    X8       ELEM10    1          ELEM19    1          
    X8       ELEM24    1          ELEM30    1          
    X8       ELEM42    1          ELEM45    1          
    X8       ELEM46    1          
    X9       COST      32         ELEM12    1          ELEM29    1          
    X9       ELEM35    1          
    X10      COST      73         ELEM3     1          ELEM4     1          
    X10      ELEM5     1          ELEM7     1          
    X10      ELEM13    1          ELEM15    1          
    X10      ELEM16    1          ELEM17    1          
    X10      ELEM21    1          ELEM30    1          
    X10      ELEM35    1          ELEM39    1          
    X10      ELEM43    1          ELEM49    1          
    X10      ELEM50    1          
    X11      COST      99         ELEM25    1          ELEM33    1          
    X11      ELEM34    1          ELEM38    1          
    X11      ELEM43    1          ELEM47    1          
    X11      ELEM49    1          
    X12      COST      50         ELEM5     1          ELEM6     1          
    X12      ELEM9     1          ELEM14    1          
    X12      ELEM21    1          ELEM23    1          
    X12      ELEM32    1          ELEM42    1          
    X12      ELEM45    1          ELEM50    1          
    X13      COST      56         ELEM12    1          ELEM17    1          
    X13      ELEM19    1          ELEM21    1          
    X13      ELEM22    1          ELEM25    1          
    X13      ELEM27    1          ELEM32    1          
    X13      ELEM36    1          ELEM39    1          
    X13      ELEM40    1          ELEM45    1          
    X13      ELEM46    1          
    X14      COST      74         ELEM1     1          ELEM12    1          
    X14      ELEM13    1          ELEM18    1          
    X14      ELEM23    1          ELEM28    1          
    X14      ELEM32    1          ELEM39    1          
    X14      ELEM40    1          ELEM44    1          
    X15      COST      75         ELEM3     1          ELEM4     1          
    X15      ELEM5     1          ELEM7     1          
    X15      ELEM10    1          ELEM11    1          
    X15      ELEM29    1          ELEM31    1          
    X15      ELEM42    1          ELEM44    1          
    X15      ELEM47    1          ELEM49    1          
    X15      ELEM50    1          
RHS
    RHS       ELEM1     1       
    RHS       ELEM2     1       
    RHS       ELEM3     1       
    RHS       ELEM4     1       
    RHS       ELEM5     1       
    RHS       ELEM6     1       
    RHS       ELEM7     1       
    RHS       ELEM8     1       
    RHS       ELEM9     1       
    RHS       ELEM10    1       
    RHS       ELEM11    1       
    RHS       ELEM12    1       
    RHS       ELEM13    1       
    RHS       ELEM14    1       
    RHS       ELEM15    1       
    RHS       ELEM16    1       
    RHS       ELEM17    1       
    RHS       ELEM18    1       
    RHS       ELEM19    1       
    RHS       ELEM20    1       
    RHS       ELEM21    1       
    RHS       ELEM22    1       
    RHS       ELEM23    1       
    RHS       ELEM24    1       
    RHS       ELEM25    1       
    RHS       ELEM26    1       
    RHS       ELEM27    1       
    RHS       ELEM28    1       
    RHS       ELEM29    1       
    RHS       ELEM30    1       
    RHS       ELEM31    1       
    RHS       ELEM32    1       
    RHS       ELEM33    1       
    RHS       ELEM34    1       
    RHS       ELEM35    1       
    RHS       ELEM36    1       
    RHS       ELEM37    1       
    RHS       ELEM38    1       
    RHS       ELEM39    1       
    RHS       ELEM40    1       
    RHS       ELEM41    1       
    RHS       ELEM42    1       
    RHS       ELEM43    1       
    RHS       ELEM44    1       
    RHS       ELEM45    1       
    RHS       ELEM46    1       
    RHS       ELEM47    1       
    RHS       ELEM48    1       
    RHS       ELEM49    1       
    RHS       ELEM50    1       
BOUNDS
 BV BND1      X1
 BV BND1      X2
 BV BND1      X3
 BV BND1      X4
 BV BND1      X5
 BV BND1      X6
 BV BND1      X7
 BV BND1      X8
 BV BND1      X9
 BV BND1      X10
 BV BND1      X11
 BV BND1      X12
 BV BND1      X13
 BV BND1      X14
 BV BND1      X15
ENDATA
